c generated by sgen
p cnf 65 140
-2 -3 -4 0
-1 -3 -4 0
-1 -2 -4 0
-1 -2 -3 0
-6 -7 -8 0
-5 -7 -8 0
-5 -6 -8 0
-5 -6 -7 0
-10 -11 -12 0
-9 -11 -12 0
-9 -10 -12 0
-9 -10 -11 0
-14 -15 -16 0
-13 -15 -16 0
-13 -14 -16 0
-13 -14 -15 0
-18 -19 -20 0
-17 -19 -20 0
-17 -18 -20 0
-17 -18 -19 0
-22 -23 -24 0
-21 -23 -24 0
-21 -22 -24 0
-21 -22 -23 0
-26 -27 -28 0
-25 -27 -28 0
-25 -26 -28 0
-25 -26 -27 0
-30 -31 -32 0
-29 -31 -32 0
-29 -30 -32 0
-29 -30 -31 0
-34 -35 -36 0
-33 -35 -36 0
-33 -34 -36 0
-33 -34 -35 0
-38 -39 -40 0
-37 -39 -40 0
-37 -38 -40 0
-37 -38 -39 0
-42 -43 -44 0
-41 -43 -44 0
-41 -42 -44 0
-41 -42 -43 0
-46 -47 -48 0
-45 -47 -48 0
-45 -46 -48 0
-45 -46 -47 0
-50 -51 -52 0
-49 -51 -52 0
-49 -50 -52 0
-49 -50 -51 0
-54 -55 -56 0
-53 -55 -56 0
-53 -54 -56 0
-53 -54 -55 0
-58 -59 -60 0
-57 -59 -60 0
-57 -58 -60 0
-57 -58 -59 0
-61 -62 -63 0
-61 -62 -64 0
-61 -62 -65 0
-61 -63 -64 0
-61 -63 -65 0
-61 -64 -65 0
-62 -63 -64 0
-62 -63 -65 0
-62 -64 -65 0
-63 -64 -65 0
65 50 35 0
32 50 35 0
32 65 35 0
32 65 50 0
48 30 9 0
37 30 9 0
37 48 9 0
37 48 30 0
21 53 25 0
51 53 25 0
51 21 25 0
51 21 53 0
17 43 28 0
45 43 28 0
45 17 28 0
45 17 43 0
26 40 13 0
59 40 13 0
59 26 13 0
59 26 40 0
56 18 8 0
38 18 8 0
38 56 8 0
38 56 18 0
7 47 49 0
60 47 49 0
60 7 49 0
60 7 47 0
62 2 39 0
23 2 39 0
23 62 39 0
23 62 2 0
33 64 55 0
46 64 55 0
46 33 55 0
46 33 64 0
27 4 34 0
5 4 34 0
5 27 34 0
5 27 4 0
42 24 12 0
36 24 12 0
36 42 12 0
36 42 24 0
14 22 29 0
19 22 29 0
19 14 29 0
19 14 22 0
41 16 61 0
6 16 61 0
6 41 61 0
6 41 16 0
20 63 57 0
11 63 57 0
11 20 57 0
11 20 63 0
15 52 3 0
10 52 3 0
10 15 3 0
10 15 52 0
54 31 1 0
54 31 58 0
54 31 44 0
54 1 58 0
54 1 44 0
54 58 44 0
31 1 58 0
31 1 44 0
31 58 44 0
1 58 44 0
